n = 70;
capacity = 100;
size = [80, 80, 79, 78, 77, 77, 76, 76, 76, 75, 75, 74, 74, 70, 70, 69, 69, 69, 65, 64, 64, 62, 61, 59, 59, 56, 55, 54, 51, 51, 50, 50, 49, 49, 48, 47, 45, 45, 44, 42, 42, 41, 41, 39, 39, 38, 38, 38, 38, 37, 36, 35, 35, 33, 32, 32, 32, 31, 31, 30, 28, 27, 25, 25, 25, 24, 21, 21, 21, 20];
